<?xml version = "1.0" standalone="yes"?>
<!-- This file has been generated by DOcplex version 2.23.222  -->
<CPLEXSolution version="1.0">
 <header
   problemName="CVRP"
   objectiveValue="8216.79"
  />
 <variables>
  <variable name="x_0_1" index="0" value="1.00000"/>
  <variable name="x_0_2" index="1" value="1.00000"/>
  <variable name="x_0_3" index="2" value="1.00000"/>
  <variable name="x_0_7" index="6" value="1.00000"/>
  <variable name="x_0_9" index="8" value="1.00000"/>
  <variable name="x_0_11" index="10" value="1.00000"/>
  <variable name="x_0_12" index="11" value="1.00000"/>
  <variable name="x_0_14" index="13" value="1.00000"/>
  <variable name="x_1_0" index="15" value="1.00000"/>
  <variable name="x_2_0" index="30" value="1.00000"/>
  <variable name="x_3_4" index="48" value="1.00000"/>
  <variable name="x_4_13" index="72" value="1.00000"/>
  <variable name="x_5_0" index="75" value="1.00000"/>
  <variable name="x_6_8" index="97" value="1.00000"/>
  <variable name="x_7_15" index="119" value="1.00000"/>
  <variable name="x_8_0" index="120" value="1.00000"/>
  <variable name="x_9_5" index="140" value="1.00000"/>
  <variable name="x_10_0" index="150" value="1.00000"/>
  <variable name="x_11_6" index="171" value="1.00000"/>
  <variable name="x_12_0" index="180" value="1.00000"/>
  <variable name="x_13_0" index="195" value="1.00000"/>
  <variable name="x_14_10" index="220" value="1.00000"/>
  <variable name="x_15_0" index="225" value="1.00000"/>
  <variable name="u_1" index="240" value="65.00000"/>
  <variable name="u_2" index="241" value="65.00000"/>
  <variable name="u_3" index="242" value="27.00000"/>
  <variable name="u_4" index="243" value="49.00000"/>
  <variable name="u_5" index="244" value="65.00000"/>
  <variable name="u_6" index="245" value="62.00000"/>
  <variable name="u_7" index="246" value="58.00000"/>
  <variable name="u_8" index="247" value="65.00000"/>
  <variable name="u_9" index="248" value="23.00000"/>
  <variable name="u_10" index="249" value="55.00000"/>
  <variable name="u_11" index="250" value="43.00000"/>
  <variable name="u_12" index="251" value="56.00000"/>
  <variable name="u_13" index="252" value="64.00000"/>
  <variable name="u_14" index="253" value="31.00000"/>
  <variable name="u_15" index="254" value="65.00000"/>
 </variables>
</CPLEXSolution>
